180882.78,48.22,59.8
169678.89,51.41,63.75
152431.48,57.22,70.96
162734.65,53.6,66.47
187979.29,46.4,57.54
182104.16,47.9,59.4
170769.94,51.08,63.34
160026.6,54.51,67.59
185662.48,46.98,58.26
153579.77,56.79,70.43
187484.2,46.53,57.69
170955.63,51.02,63.27
189207.93,46.1,57.17
175984.9,49.56,61.46
187912.49,46.42,57.56
183416.98,47.56,58.97
167524.54,52.07,64.57
184071.12,47.39,58.76
187915.71,46.42,57.56
173505.3,50.27,62.34
